NAME          polya_d8_R4
ROWS
 N  OBJ
 E  r_0
 E  r_1
 E  r_2
 E  r_3
 E  r_4
 E  r_5
 E  r_6
 E  r_7
 E  r_8
 E  r_9
 E  r_10
 E  r_11
 E  r_12
 E  r_13
 E  r_14
 E  r_15
 E  r_16
 E  r_17
 E  r_18
 E  r_19
 E  r_20
 E  r_21
 E  r_22
 E  r_23
 E  r_24
 E  r_25
 E  r_26
 E  r_27
 E  r_28
 E  r_29
 E  r_30
 E  r_31
 E  r_32
 E  r_33
 E  r_34
 E  r_35
 E  r_36
 E  r_37
 E  r_38
 E  r_39
 E  r_40
 E  r_41
 E  r_42
 E  r_43
 E  r_44
 E  r_45
 E  r_46
 E  r_47
 E  r_48
 E  r_49
 E  r_50
 E  r_51
 E  r_52
 E  r_53
 E  r_54
 E  r_55
 E  r_56
 E  r_57
 E  r_58
 E  r_59
 E  r_60
 E  r_61
 E  r_62
 E  r_63
 E  r_64
 E  r_65
 E  r_66
 E  r_67
 E  r_68
 E  r_69
 E  r_70
COLUMNS
    x_0         OBJ        -1
    x_0         r_0        -1
    x_1         r_55       2
    x_1         r_70       1
    x_2         r_45       4
    x_2         r_70       1
    x_3         r_25       2
    x_3         r_39       4
    x_3         r_70       1
    x_4         r_19       4
    x_4         r_36       4
    x_4         r_70       1
    x_5         r_9        2
    x_5         r_16       4
    x_5         r_36       4
    x_5         r_70       1
    x_6         r_6        4
    x_6         r_16       4
    x_6         r_39       4
    x_6         r_70       1
    x_7         r_2        2
    x_7         r_6        4
    x_7         r_19       4
    x_7         r_45       4
    x_7         r_70       1
    x_8         r_2        4
    x_8         r_9        4
    x_8         r_25       4
    x_8         r_55       4
    x_8         r_70       1
    x_9         r_45       2.666666666666667
    x_9         r_55       1.333333333333333
    x_9         r_70       1
    x_10        r_25       1.333333333333333
    x_10        r_39       2.666666666666667
    x_10        r_45       2.666666666666667
    x_10        r_70       1
    x_11        r_19       2.666666666666667
    x_11        r_25       1.333333333333333
    x_11        r_36       2.666666666666667
    x_11        r_39       2.666666666666667
    x_11        r_70       1
    x_12        r_9        1.333333333333333
    x_12        r_16       2.666666666666667
    x_12        r_19       2.666666666666667
    x_12        r_36       5.333333333333333
    x_12        r_70       1
    x_13        r_6        2.666666666666667
    x_13        r_9        1.333333333333333
    x_13        r_16       5.333333333333333
    x_13        r_36       2.666666666666667
    x_13        r_39       2.666666666666667
    x_13        r_70       1
    x_14        r_2        1.333333333333333
    x_14        r_6        5.333333333333333
    x_14        r_16       2.666666666666667
    x_14        r_19       2.666666666666667
    x_14        r_39       2.666666666666667
    x_14        r_45       2.666666666666667
    x_14        r_70       1
    x_15        r_2        4
    x_15        r_6        2.666666666666667
    x_15        r_9        2.666666666666667
    x_15        r_19       2.666666666666667
    x_15        r_25       2.666666666666667
    x_15        r_45       2.666666666666667
    x_15        r_55       2.666666666666667
    x_15        r_70       1
    x_16        r_25       1
    x_16        r_39       2
    x_16        r_45       2
    x_16        r_55       1
    x_16        r_70       1
    x_17        r_19       2
    x_17        r_25       1
    x_17        r_36       2
    x_17        r_39       2
    x_17        r_45       2
    x_17        r_70       1
    x_18        r_9        1
    x_18        r_16       2
    x_18        r_19       2
    x_18        r_25       1
    x_18        r_36       4
    x_18        r_39       2
    x_18        r_70       1
    x_19        r_6        2
    x_19        r_9        1
    x_19        r_16       4
    x_19        r_19       2
    x_19        r_36       4
    x_19        r_39       2
    x_19        r_70       1
    x_20        r_2        1
    x_20        r_6        4
    x_20        r_9        1
    x_20        r_16       4
    x_20        r_19       2
    x_20        r_36       2
    x_20        r_39       2
    x_20        r_45       2
    x_20        r_70       1
    x_21        r_2        3
    x_21        r_6        4
    x_21        r_9        2
    x_21        r_16       2
    x_21        r_19       2
    x_21        r_25       2
    x_21        r_39       2
    x_21        r_45       2
    x_21        r_55       2
    x_21        r_70       1
    x_22        r_2        4
    x_22        r_6        4
    x_22        r_9        2
    x_22        r_19       4
    x_22        r_25       2
    x_22        r_45       4
    x_22        r_55       2
    x_22        r_70       1
    x_23        r_19       1.6
    x_23        r_25       0.8
    x_23        r_36       1.6
    x_23        r_39       1.6
    x_23        r_45       1.6
    x_23        r_55       0.8
    x_23        r_70       1
    x_24        r_9        0.8
    x_24        r_16       1.6
    x_24        r_19       1.6
    x_24        r_25       0.8
    x_24        r_36       3.2
    x_24        r_39       1.6
    x_24        r_45       1.6
    x_24        r_70       1
    x_25        r_6        1.6
    x_25        r_9        0.8
    x_25        r_16       3.2
    x_25        r_19       1.6
    x_25        r_25       0.8
    x_25        r_36       3.2
    x_25        r_39       3.2
    x_25        r_70       1
    x_26        r_2        0.8
    x_26        r_6        3.2
    x_26        r_9        0.8
    x_26        r_16       3.2
    x_26        r_19       3.2
    x_26        r_36       3.2
    x_26        r_39       1.6
    x_26        r_45       1.6
    x_26        r_70       1
    x_27        r_2        2.4
    x_27        r_6        3.2
    x_27        r_9        2.4
    x_27        r_16       3.2
    x_27        r_19       1.6
    x_27        r_25       1.6
    x_27        r_36       1.6
    x_27        r_39       1.6
    x_27        r_45       1.6
    x_27        r_55       1.6
    x_27        r_70       1
    x_28        r_2        3.2
    x_28        r_6        4.800000000000001
    x_28        r_9        1.6
    x_28        r_16       1.6
    x_28        r_19       3.2
    x_28        r_25       1.6
    x_28        r_39       1.6
    x_28        r_45       3.2
    x_28        r_55       1.6
    x_28        r_70       1
    x_29        r_9        0.6666666666666666
    x_29        r_16       1.333333333333333
    x_29        r_19       1.333333333333333
    x_29        r_25       0.6666666666666666
    x_29        r_36       2.666666666666667
    x_29        r_39       1.333333333333333
    x_29        r_45       1.333333333333333
    x_29        r_55       0.6666666666666666
    x_29        r_70       1
    x_30        r_6        1.333333333333333
    x_30        r_9        0.6666666666666666
    x_30        r_16       2.666666666666667
    x_30        r_19       1.333333333333333
    x_30        r_25       0.6666666666666666
    x_30        r_36       2.666666666666667
    x_30        r_39       2.666666666666667
    x_30        r_45       1.333333333333333
    x_30        r_70       1
    x_31        r_2        0.6666666666666666
    x_31        r_6        2.666666666666667
    x_31        r_9        0.6666666666666666
    x_31        r_16       2.666666666666667
    x_31        r_19       2.666666666666667
    x_31        r_25       0.6666666666666666
    x_31        r_36       2.666666666666667
    x_31        r_39       2.666666666666667
    x_31        r_45       1.333333333333333
    x_31        r_70       1
    x_32        r_2        2
    x_32        r_6        2.666666666666667
    x_32        r_9        2
    x_32        r_16       2.666666666666667
    x_32        r_19       2.666666666666667
    x_32        r_25       1.333333333333333
    x_32        r_36       2.666666666666667
    x_32        r_39       1.333333333333333
    x_32        r_45       1.333333333333333
    x_32        r_55       1.333333333333333
    x_32        r_70       1
    x_33        r_2        2.666666666666667
    x_33        r_6        4
    x_33        r_9        2
    x_33        r_16       2.666666666666667
    x_33        r_19       2.666666666666667
    x_33        r_25       1.333333333333333
    x_33        r_36       1.333333333333333
    x_33        r_39       1.333333333333333
    x_33        r_45       2.666666666666667
    x_33        r_55       1.333333333333333
    x_33        r_70       1
    x_34        r_2        2.666666666666667
    x_34        r_6        5.333333333333333
    x_34        r_9        1.333333333333333
    x_34        r_16       2.666666666666667
    x_34        r_19       2.666666666666667
    x_34        r_25       1.333333333333333
    x_34        r_39       2.666666666666667
    x_34        r_45       2.666666666666667
    x_34        r_55       1.333333333333333
    x_34        r_70       1
    x_35        r_6        1.142857142857143
    x_35        r_9        0.5714285714285714
    x_35        r_16       2.285714285714286
    x_35        r_19       1.142857142857143
    x_35        r_25       0.5714285714285714
    x_35        r_36       2.285714285714286
    x_35        r_39       2.285714285714286
    x_35        r_45       1.142857142857143
    x_35        r_55       0.5714285714285714
    x_35        r_70       1
    x_36        r_2        0.5714285714285714
    x_36        r_6        2.285714285714286
    x_36        r_9        0.5714285714285714
    x_36        r_16       2.285714285714286
    x_36        r_19       2.285714285714286
    x_36        r_25       0.5714285714285714
    x_36        r_36       2.285714285714286
    x_36        r_39       2.285714285714286
    x_36        r_45       2.285714285714286
    x_36        r_70       1
    x_37        r_2        1.714285714285714
    x_37        r_6        2.285714285714286
    x_37        r_9        1.714285714285714
    x_37        r_16       2.285714285714286
    x_37        r_19       2.285714285714286
    x_37        r_25       1.714285714285714
    x_37        r_36       2.285714285714286
    x_37        r_39       2.285714285714286
    x_37        r_45       1.142857142857143
    x_37        r_55       1.142857142857143
    x_37        r_70       1
    x_38        r_2        2.285714285714286
    x_38        r_6        3.428571428571428
    x_38        r_9        1.714285714285714
    x_38        r_16       2.285714285714286
    x_38        r_19       3.428571428571428
    x_38        r_25       1.142857142857143
    x_38        r_36       2.285714285714286
    x_38        r_39       1.142857142857143
    x_38        r_45       2.285714285714286
    x_38        r_55       1.142857142857143
    x_38        r_70       1
    x_39        r_2        2.285714285714286
    x_39        r_6        4.571428571428571
    x_39        r_9        1.714285714285714
    x_39        r_16       3.428571428571428
    x_39        r_19       2.285714285714286
    x_39        r_25       1.142857142857143
    x_39        r_36       1.142857142857143
    x_39        r_39       2.285714285714286
    x_39        r_45       2.285714285714286
    x_39        r_55       1.142857142857143
    x_39        r_70       1
    x_40        r_2        0.5
    x_40        r_6        2
    x_40        r_9        0.5
    x_40        r_16       2
    x_40        r_19       2
    x_40        r_25       0.5
    x_40        r_36       2
    x_40        r_39       2
    x_40        r_45       2
    x_40        r_55       0.5
    x_40        r_70       1
    x_41        r_2        1.5
    x_41        r_6        2
    x_41        r_9        1.5
    x_41        r_16       2
    x_41        r_19       2
    x_41        r_25       1.5
    x_41        r_36       2
    x_41        r_39       2
    x_41        r_45       2
    x_41        r_55       1
    x_41        r_70       1
    x_42        r_2        2
    x_42        r_6        3
    x_42        r_9        1.5
    x_42        r_16       2
    x_42        r_19       3
    x_42        r_25       1.5
    x_42        r_36       2
    x_42        r_39       2
    x_42        r_45       2
    x_42        r_55       1
    x_42        r_70       1
    x_43        r_2        2
    x_43        r_6        4
    x_43        r_9        1.5
    x_43        r_16       3
    x_43        r_19       3
    x_43        r_25       1
    x_43        r_36       2
    x_43        r_39       2
    x_43        r_45       2
    x_43        r_55       1
    x_43        r_70       1
    x_44        r_2        2
    x_44        r_6        4
    x_44        r_9        2
    x_44        r_16       4
    x_44        r_19       2
    x_44        r_25       1
    x_44        r_36       2
    x_44        r_39       2
    x_44        r_45       2
    x_44        r_55       1
    x_44        r_70       1
    x_45        r_2        1.333333333333333
    x_45        r_6        1.777777777777778
    x_45        r_9        1.333333333333333
    x_45        r_16       1.777777777777778
    x_45        r_19       1.777777777777778
    x_45        r_25       1.333333333333333
    x_45        r_36       1.777777777777778
    x_45        r_39       1.777777777777778
    x_45        r_45       1.777777777777778
    x_45        r_55       1.333333333333333
    x_45        r_70       1
    x_46        r_2        1.777777777777778
    x_46        r_6        2.666666666666667
    x_46        r_9        1.333333333333333
    x_46        r_16       1.777777777777778
    x_46        r_19       2.666666666666667
    x_46        r_25       1.333333333333333
    x_46        r_36       1.777777777777778
    x_46        r_39       1.777777777777778
    x_46        r_45       2.666666666666667
    x_46        r_55       0.8888888888888888
    x_46        r_70       1
    x_47        r_2        1.777777777777778
    x_47        r_6        3.555555555555555
    x_47        r_9        1.333333333333333
    x_47        r_16       2.666666666666667
    x_47        r_19       2.666666666666667
    x_47        r_25       1.333333333333333
    x_47        r_36       1.777777777777778
    x_47        r_39       2.666666666666667
    x_47        r_45       1.777777777777778
    x_47        r_55       0.8888888888888888
    x_47        r_70       1
    x_48        r_2        1.777777777777778
    x_48        r_6        3.555555555555555
    x_48        r_9        1.777777777777778
    x_48        r_16       3.555555555555555
    x_48        r_19       2.666666666666667
    x_48        r_25       0.8888888888888888
    x_48        r_36       2.666666666666667
    x_48        r_39       1.777777777777778
    x_48        r_45       1.777777777777778
    x_48        r_55       0.8888888888888888
    x_48        r_70       1
    x_49        r_2        1.6
    x_49        r_6        2.4
    x_49        r_9        1.2
    x_49        r_16       1.6
    x_49        r_19       2.4
    x_49        r_25       1.2
    x_49        r_36       1.6
    x_49        r_39       1.6
    x_49        r_45       2.4
    x_49        r_55       1.2
    x_49        r_70       1
    x_50        r_2        1.6
    x_50        r_6        3.2
    x_50        r_9        1.2
    x_50        r_16       2.4
    x_50        r_19       2.4
    x_50        r_25       1.2
    x_50        r_36       1.6
    x_50        r_39       2.4
    x_50        r_45       2.4
    x_50        r_55       0.8
    x_50        r_70       1
    x_51        r_2        1.6
    x_51        r_6        3.2
    x_51        r_9        1.6
    x_51        r_16       3.2
    x_51        r_19       2.4
    x_51        r_25       1.2
    x_51        r_36       2.4
    x_51        r_39       2.4
    x_51        r_45       1.6
    x_51        r_55       0.8
    x_51        r_70       1
    x_52        r_2        1.6
    x_52        r_6        3.2
    x_52        r_9        1.6
    x_52        r_16       3.2
    x_52        r_19       3.2
    x_52        r_25       0.8
    x_52        r_36       3.2
    x_52        r_39       1.6
    x_52        r_45       1.6
    x_52        r_55       0.8
    x_52        r_70       1
    x_53        r_2        1.454545454545455
    x_53        r_6        2.909090909090909
    x_53        r_9        1.090909090909091
    x_53        r_16       2.181818181818182
    x_53        r_19       2.181818181818182
    x_53        r_25       1.090909090909091
    x_53        r_36       1.454545454545455
    x_53        r_39       2.181818181818182
    x_53        r_45       2.181818181818182
    x_53        r_55       1.090909090909091
    x_53        r_70       1
    x_54        r_2        1.454545454545455
    x_54        r_6        2.909090909090909
    x_54        r_9        1.454545454545455
    x_54        r_16       2.909090909090909
    x_54        r_19       2.181818181818182
    x_54        r_25       1.090909090909091
    x_54        r_36       2.181818181818182
    x_54        r_39       2.181818181818182
    x_54        r_45       2.181818181818182
    x_54        r_55       0.7272727272727273
    x_54        r_70       1
    x_55        r_2        1.454545454545455
    x_55        r_6        2.909090909090909
    x_55        r_9        1.454545454545455
    x_55        r_16       2.909090909090909
    x_55        r_19       2.909090909090909
    x_55        r_25       1.090909090909091
    x_55        r_36       2.909090909090909
    x_55        r_39       2.181818181818182
    x_55        r_45       1.454545454545455
    x_55        r_55       0.7272727272727273
    x_55        r_70       1
    x_56        r_2        1.333333333333333
    x_56        r_6        2.666666666666667
    x_56        r_9        1.333333333333333
    x_56        r_16       2.666666666666667
    x_56        r_19       2
    x_56        r_25       1
    x_56        r_36       2
    x_56        r_39       2
    x_56        r_45       2
    x_56        r_55       1
    x_56        r_70       1
    x_57        r_2        1.333333333333333
    x_57        r_6        2.666666666666667
    x_57        r_9        1.333333333333333
    x_57        r_16       2.666666666666667
    x_57        r_19       2.666666666666667
    x_57        r_25       1
    x_57        r_36       2.666666666666667
    x_57        r_39       2
    x_57        r_45       2
    x_57        r_55       0.6666666666666666
    x_57        r_70       1
    x_58        r_2        1.333333333333333
    x_58        r_6        2.666666666666667
    x_58        r_9        1.333333333333333
    x_58        r_16       2.666666666666667
    x_58        r_19       2.666666666666667
    x_58        r_25       1.333333333333333
    x_58        r_36       2.666666666666667
    x_58        r_39       2.666666666666667
    x_58        r_45       1.333333333333333
    x_58        r_55       0.6666666666666666
    x_58        r_70       1
    x_59        r_2        1.230769230769231
    x_59        r_6        2.461538461538462
    x_59        r_9        1.230769230769231
    x_59        r_16       2.461538461538462
    x_59        r_19       2.461538461538462
    x_59        r_25       0.9230769230769231
    x_59        r_36       2.461538461538462
    x_59        r_39       1.846153846153846
    x_59        r_45       1.846153846153846
    x_59        r_55       0.9230769230769231
    x_59        r_70       1
    x_60        r_2        1.230769230769231
    x_60        r_6        2.461538461538462
    x_60        r_9        1.230769230769231
    x_60        r_16       2.461538461538462
    x_60        r_19       2.461538461538462
    x_60        r_25       1.230769230769231
    x_60        r_36       2.461538461538462
    x_60        r_39       2.461538461538462
    x_60        r_45       1.846153846153846
    x_60        r_55       0.6153846153846154
    x_60        r_70       1
    x_61        r_2        1.142857142857143
    x_61        r_6        2.285714285714286
    x_61        r_9        1.142857142857143
    x_61        r_16       2.285714285714286
    x_61        r_19       2.285714285714286
    x_61        r_25       1.142857142857143
    x_61        r_36       2.285714285714286
    x_61        r_39       2.285714285714286
    x_61        r_45       1.714285714285714
    x_61        r_55       0.8571428571428571
    x_61        r_70       1
    x_62        r_2        1.142857142857143
    x_62        r_6        2.285714285714286
    x_62        r_9        1.142857142857143
    x_62        r_16       2.285714285714286
    x_62        r_19       2.285714285714286
    x_62        r_25       1.142857142857143
    x_62        r_36       2.285714285714286
    x_62        r_39       2.285714285714286
    x_62        r_45       2.285714285714286
    x_62        r_55       0.5714285714285714
    x_62        r_70       1
    x_63        r_2        1.066666666666667
    x_63        r_6        2.133333333333333
    x_63        r_9        1.066666666666667
    x_63        r_16       2.133333333333333
    x_63        r_19       2.133333333333333
    x_63        r_25       1.066666666666667
    x_63        r_36       2.133333333333333
    x_63        r_39       2.133333333333333
    x_63        r_45       2.133333333333333
    x_63        r_55       0.8
    x_63        r_70       1
    x_64        r_2        1
    x_64        r_6        2
    x_64        r_9        1
    x_64        r_16       2
    x_64        r_19       2
    x_64        r_25       1
    x_64        r_36       2
    x_64        r_39       2
    x_64        r_45       2
    x_64        r_55       1
    x_64        r_70       1
    x_65        r_0        1
    x_65        r_1        -1
    x_65        r_5        -1
    x_65        r_15       -1
    x_65        r_35       -1
    x_66        r_1        1
    x_66        r_2        -1
    x_66        r_6        -1
    x_66        r_16       -1
    x_66        r_36       -1
    x_67        r_2        1
    x_67        r_3        -1
    x_67        r_7        -1
    x_67        r_17       -1
    x_67        r_37       -1
    x_68        r_3        1
    x_68        r_4        -1
    x_68        r_8        -1
    x_68        r_18       -1
    x_68        r_38       -1
    x_69        r_5        1
    x_69        r_6        -1
    x_69        r_9        -1
    x_69        r_19       -1
    x_69        r_39       -1
    x_70        r_6        1
    x_70        r_7        -1
    x_70        r_10       -1
    x_70        r_20       -1
    x_70        r_40       -1
    x_71        r_7        1
    x_71        r_8        -1
    x_71        r_11       -1
    x_71        r_21       -1
    x_71        r_41       -1
    x_72        r_9        1
    x_72        r_10       -1
    x_72        r_12       -1
    x_72        r_22       -1
    x_72        r_42       -1
    x_73        r_10       1
    x_73        r_11       -1
    x_73        r_13       -1
    x_73        r_23       -1
    x_73        r_43       -1
    x_74        r_12       1
    x_74        r_13       -1
    x_74        r_14       -1
    x_74        r_24       -1
    x_74        r_44       -1
    x_75        r_15       1
    x_75        r_16       -1
    x_75        r_19       -1
    x_75        r_25       -1
    x_75        r_45       -1
    x_76        r_16       1
    x_76        r_17       -1
    x_76        r_20       -1
    x_76        r_26       -1
    x_76        r_46       -1
    x_77        r_17       1
    x_77        r_18       -1
    x_77        r_21       -1
    x_77        r_27       -1
    x_77        r_47       -1
    x_78        r_19       1
    x_78        r_20       -1
    x_78        r_22       -1
    x_78        r_28       -1
    x_78        r_48       -1
    x_79        r_20       1
    x_79        r_21       -1
    x_79        r_23       -1
    x_79        r_29       -1
    x_79        r_49       -1
    x_80        r_22       1
    x_80        r_23       -1
    x_80        r_24       -1
    x_80        r_30       -1
    x_80        r_50       -1
    x_81        r_25       1
    x_81        r_26       -1
    x_81        r_28       -1
    x_81        r_31       -1
    x_81        r_51       -1
    x_82        r_26       1
    x_82        r_27       -1
    x_82        r_29       -1
    x_82        r_32       -1
    x_82        r_52       -1
    x_83        r_28       1
    x_83        r_29       -1
    x_83        r_30       -1
    x_83        r_33       -1
    x_83        r_53       -1
    x_84        r_31       1
    x_84        r_32       -1
    x_84        r_33       -1
    x_84        r_34       -1
    x_84        r_54       -1
    x_85        r_35       1
    x_85        r_36       -1
    x_85        r_39       -1
    x_85        r_45       -1
    x_85        r_55       -1
    x_86        r_36       1
    x_86        r_37       -1
    x_86        r_40       -1
    x_86        r_46       -1
    x_86        r_56       -1
    x_87        r_37       1
    x_87        r_38       -1
    x_87        r_41       -1
    x_87        r_47       -1
    x_87        r_57       -1
    x_88        r_39       1
    x_88        r_40       -1
    x_88        r_42       -1
    x_88        r_48       -1
    x_88        r_58       -1
    x_89        r_40       1
    x_89        r_41       -1
    x_89        r_43       -1
    x_89        r_49       -1
    x_89        r_59       -1
    x_90        r_42       1
    x_90        r_43       -1
    x_90        r_44       -1
    x_90        r_50       -1
    x_90        r_60       -1
    x_91        r_45       1
    x_91        r_46       -1
    x_91        r_48       -1
    x_91        r_51       -1
    x_91        r_61       -1
    x_92        r_46       1
    x_92        r_47       -1
    x_92        r_49       -1
    x_92        r_52       -1
    x_92        r_62       -1
    x_93        r_48       1
    x_93        r_49       -1
    x_93        r_50       -1
    x_93        r_53       -1
    x_93        r_63       -1
    x_94        r_51       1
    x_94        r_52       -1
    x_94        r_53       -1
    x_94        r_54       -1
    x_94        r_64       -1
    x_95        r_55       1
    x_95        r_56       -1
    x_95        r_58       -1
    x_95        r_61       -1
    x_95        r_65       -1
    x_96        r_56       1
    x_96        r_57       -1
    x_96        r_59       -1
    x_96        r_62       -1
    x_96        r_66       -1
    x_97        r_58       1
    x_97        r_59       -1
    x_97        r_60       -1
    x_97        r_63       -1
    x_97        r_67       -1
    x_98        r_61       1
    x_98        r_62       -1
    x_98        r_63       -1
    x_98        r_64       -1
    x_98        r_68       -1
    x_99        r_65       1
    x_99        r_66       -1
    x_99        r_67       -1
    x_99        r_68       -1
    x_99        r_69       -1
    x_100       r_0        -1
    x_101       r_1        -1
    x_102       r_2        -1
    x_103       r_3        -1
    x_104       r_4        -1
    x_105       r_5        -1
    x_106       r_6        -1
    x_107       r_7        -1
    x_108       r_8        -1
    x_109       r_9        -1
    x_110       r_10       -1
    x_111       r_11       -1
    x_112       r_12       -1
    x_113       r_13       -1
    x_114       r_14       -1
    x_115       r_15       -1
    x_116       r_16       -1
    x_117       r_17       -1
    x_118       r_18       -1
    x_119       r_19       -1
    x_120       r_20       -1
    x_121       r_21       -1
    x_122       r_22       -1
    x_123       r_23       -1
    x_124       r_24       -1
    x_125       r_25       -1
    x_126       r_26       -1
    x_127       r_27       -1
    x_128       r_28       -1
    x_129       r_29       -1
    x_130       r_30       -1
    x_131       r_31       -1
    x_132       r_32       -1
    x_133       r_33       -1
    x_134       r_34       -1
    x_135       r_35       -1
    x_136       r_36       -1
    x_137       r_37       -1
    x_138       r_38       -1
    x_139       r_39       -1
    x_140       r_40       -1
    x_141       r_41       -1
    x_142       r_42       -1
    x_143       r_43       -1
    x_144       r_44       -1
    x_145       r_45       -1
    x_146       r_46       -1
    x_147       r_47       -1
    x_148       r_48       -1
    x_149       r_49       -1
    x_150       r_50       -1
    x_151       r_51       -1
    x_152       r_52       -1
    x_153       r_53       -1
    x_154       r_54       -1
    x_155       r_55       -1
    x_156       r_56       -1
    x_157       r_57       -1
    x_158       r_58       -1
    x_159       r_59       -1
    x_160       r_60       -1
    x_161       r_61       -1
    x_162       r_62       -1
    x_163       r_63       -1
    x_164       r_64       -1
    x_165       r_65       -1
    x_166       r_66       -1
    x_167       r_67       -1
    x_168       r_68       -1
    x_169       r_69       -1
RHS
    RHS         r_70       1
BOUNDS
 FR BND        x_0
 FR BND        x_65
 FR BND        x_66
 FR BND        x_67
 FR BND        x_68
 FR BND        x_69
 FR BND        x_70
 FR BND        x_71
 FR BND        x_72
 FR BND        x_73
 FR BND        x_74
 FR BND        x_75
 FR BND        x_76
 FR BND        x_77
 FR BND        x_78
 FR BND        x_79
 FR BND        x_80
 FR BND        x_81
 FR BND        x_82
 FR BND        x_83
 FR BND        x_84
 FR BND        x_85
 FR BND        x_86
 FR BND        x_87
 FR BND        x_88
 FR BND        x_89
 FR BND        x_90
 FR BND        x_91
 FR BND        x_92
 FR BND        x_93
 FR BND        x_94
 FR BND        x_95
 FR BND        x_96
 FR BND        x_97
 FR BND        x_98
 FR BND        x_99
ENDATA
